! PAL8
! wB97X-3c
! OPT
% geom
    scan
        B 1 2 = 1.4, 2.0, 14
    end
end
* xyzfile 0 2 opt.xyz
