%PAL NPROCS 8 END
%maxcore 750
! XTB GOAT
* xyzfile 0 1 init.xyz
