%PAL NPROCS 16 END
%maxcore 750
! REVDSD-PBEP86-D4/2021 def2-TZVPP def2-TZVPP/c OPT NumFreq
* xyzfile 0 2 init.xyz
